1	1
2	7
3	7
4	7
5	5
6	7
7	7
8	1
9	3
10	3
11	3
12	3
13	6
14	7
15	1
16	1
17	1
18	1
19	7
20	7
21	1
22	7
23	4
24	3
25	3
26	7
27	1
28	7
29	1
30	1
31	2
32	7
33	1
34	1
35	3
36	1
37	3
38	4
39	5
40	1
41	7
42	7
43	1
44	2
45	5
46	1
47	1
48	2
49	3
50	8
51	3
52	7
53	7
54	3
55	7
56	7
57	8
58	2
59	5
60	1
61	7
62	8
63	7
64	3
65	8
66	5
67	3
68	7
69	8
70	3
71	2
72	3
73	8
74	3
75	7
76	5
77	5
78	3
79	3
80	8
81	2
82	1
83	1
84	7
85	3
86	3
87	7
88	8
89	7
90	7
91	1
92	3
93	7
94	7
95	3
96	1
97	1
98	1
99	1
100	1
